49 35 
0 69 
88 72 
32 82 
18 17 
69 98 
72 72 
49 94 
76 2 
75 64 
33 56 
58 21 
70 16 
6 33 
32 47 
18 81 
82 71 
2 23 
95 35 
57 13 
4 78 
11 76 
51 61 
22 79 
15 97 
95 49 
5 53 
22 28 
21 81 
61 6 
28 80 
87 63 
3 90 
86 98 
77 95 
11 81 
74 75 
10 77 
36 32 
8 3 
82 3 
52 39 
8 27 
67 81 
8 29 
87 36 
61 75 
99 64 
17 37 
14 94 
